bilayer_CrI3_m23n24_1.41
1.0
      282.0943908691         0.0000000000         0.0000000000
        0.0002602450       488.6017150878         0.0000000000
        0.0000000000         0.0000000000        25.0000000000
    I   Cr
39768 13256
Direct
     0.992858678         0.002313418         0.306507530
     0.492858649         0.502313450         0.306507530
     0.007040828         0.335747332         0.306507530
     0.507040859         0.835747364         0.306507530
     0.985616542         0.342687590         0.306507530
     0.485616568         0.842687621         0.306507530
     0.964192251         0.349627847         0.306507530
     0.464192222         0.849627879         0.306507530
     0.942768067         0.356568074         0.306507530
     0.442768093         0.856568074         0.306507530
     0.921343776         0.363508331         0.306507530
     0.421343801         0.863508331         0.306507530
     0.899919430         0.370448589         0.306507530
     0.399919510         0.870448589         0.306507530
     0.878495301         0.377388846         0.306507530
     0.378495327         0.877388846         0.306507530
     0.857070956         0.384329104         0.306507530
     0.357070927         0.884329104         0.306507530
     0.835646718         0.391269361         0.306507530
     0.335646608         0.891269299         0.306507530
     0.814222589         0.398209588         0.306507530
     0.314222587         0.898209556         0.306507530
     0.792798297         0.405149845         0.306507530
     0.292798296         0.905149814         0.306507530
     0.771374060         0.412090134         0.306507530
     0.271373977         0.912090134         0.306507530
     0.749949660         0.419030360         0.306507530
     0.249949686         0.919030391         0.306507530
     0.728525369         0.425970618         0.306507530
     0.228525421         0.925970586         0.306507530
     0.707101240         0.432910875         0.306507530
     0.207101346         0.932910844         0.306507530
     0.685676948         0.439851133         0.306507530
     0.185676933         0.939851164         0.306507530
     0.664252711         0.446791390         0.306507530
     0.164252763         0.946791421         0.306507530
     0.642828473         0.453731617         0.306507530
     0.142828458         0.953731679         0.306507530
     0.621404182         0.460671874         0.306507530
     0.121404180         0.960671874         0.306507530
     0.599979836         0.467612194         0.306507530
     0.099979875         0.967612194         0.306507530
     0.578555653         0.474552389         0.306507530
     0.078555584         0.974552389         0.306507530
     0.557131470         0.481492647         0.306507530
     0.057131529         0.981492647         0.306507530
     0.535707016         0.488432873         0.306507530
     0.035706997         0.988432904         0.306507530
     0.514282832         0.495373162         0.306507530
     0.014282941         0.995373099         0.306507530
     0.971434386         0.009253672         0.306507530
     0.471434358         0.509253677         0.306507530
     0.950009987         0.016193924         0.306507530
     0.450010066         0.516193934         0.306507530
     0.928585803         0.023134180         0.306507530
     0.428585775         0.523134161         0.306507530
     0.907161674         0.030074432         0.306507530
     0.407161700         0.530074418         0.306507530
     0.885737274         0.037014687         0.306507530
     0.385737165         0.537014676         0.306507530
     0.864313145         0.043954937         0.306507530
     0.364313144         0.543954996         0.306507530
     0.842888854         0.050895191         0.306507530
     0.342888825         0.550895191         0.306507530
     0.821464400         0.057835444         0.306507530
     0.321464425         0.557835448         0.306507530
     0.800040216         0.064775698         0.306507530
     0.300040242         0.564775706         0.306507530
     0.778616033         0.071715955         0.306507530
     0.278616086         0.571715963         0.306507530
     0.757191742         0.078656213         0.306507530
     0.257191794         0.578656221         0.306507530
     0.735767450         0.085596478         0.306507530
     0.235767476         0.585596478         0.306507530
     0.714343321         0.092536720         0.306507530
     0.214343306         0.592536673         0.306507530
     0.692918975         0.099476970         0.306507530
     0.192919014         0.599476993         0.306507530
     0.671494630         0.106417227         0.306507530
     0.171494601         0.606417251         0.306507530
     0.650070501         0.113357477         0.306507530
     0.150070431         0.613357508         0.306507530
     0.628646047         0.120297727         0.306507530
     0.128646126         0.620297703         0.306507530
     0.607221809         0.127237977         0.306507530
     0.107221842         0.627237961         0.306507530
     0.585797788         0.134178234         0.306507530
     0.085797787         0.634178218         0.306507530
     0.564373335         0.141118492         0.306507530
     0.064373374         0.641118538         0.306507530
     0.542949097         0.148058749         0.306507530
     0.042949082         0.648058796         0.306507530
     0.521524914         0.154999007         0.306507530
     0.021524906         0.654998991         0.306507530
     0.500100622         0.161939248         0.306507530
     0.000100613         0.661939248         0.306507530
     0.478676331         0.168879522         0.306507530
     0.978676356         0.668879506         0.306507530
     0.457252147         0.175819748         0.306507530
     0.957252173         0.675819764         0.306507530
     0.435827856         0.182760021         0.306507530
     0.935827882         0.682760021         0.306507530
     0.414403537         0.189700263         0.306507530
     0.914403590         0.689700216         0.306507530
     0.392979354         0.196640520         0.306507530
     0.892979407         0.696640474         0.306507530
     0.371555063         0.203580762         0.306507530
     0.871555115         0.703580731         0.306507530
     0.350130744         0.210521020         0.306507530
     0.850130716         0.710521051         0.306507530
     0.328706561         0.217461277         0.306507530
     0.828706532         0.717461309         0.306507530
     0.307282269         0.224401535         0.306507530
     0.807282241         0.724401504         0.306507530
     0.285857978         0.231341777         0.306507530
     0.785857949         0.731341761         0.306507530
     0.264433686         0.238282034         0.306507530
     0.764433712         0.738282019         0.306507530
     0.243009449         0.245222308         0.306507530
     0.743009474         0.745222339         0.306507530
     0.221585184         0.252162549         0.306507530
     0.721585183         0.752162596         0.306507530
     0.200161015         0.259102791         0.306507530
     0.700161000         0.759102791         0.306507530
     0.178736655         0.266043049         0.306507530
     0.678736708         0.766043049         0.306507530
     0.157312432         0.272983275         0.306507530
     0.657312362         0.772983306         0.306507530
     0.135888221         0.279923564         0.306507530
     0.635888179         0.779923564         0.306507530
     0.114463930         0.286863790         0.306507530
     0.614463888         0.786863821         0.306507530
     0.093039631         0.293804048         0.306507530
     0.593039650         0.793804079         0.306507530
     0.071615455         0.300744305         0.306507530
     0.571615467         0.800744274         0.306507530
     0.050191133         0.307684563         0.306507530
     0.550191175         0.807684532         0.306507530
     0.028766781         0.314624820         0.306507530
     0.528766776         0.814624789         0.306507530
     0.007342667         0.321565047         0.306507530
     0.507342701         0.821565047         0.306507530
     0.985918275         0.328505304         0.306507530
     0.485918301         0.828505304         0.306507530
     0.028163313         0.342989329         0.306507530
     0.528163310         0.842989298         0.306507530
     0.006739140         0.349929556         0.306507530
     0.506739126         0.849929556         0.306507530
     0.985314701         0.356869844         0.306507530
     0.485314727         0.856869813         0.306507530
     0.963890518         0.363810102         0.306507530
     0.463890543         0.863810071         0.306507530
     0.942466226         0.370750391         0.306507530
     0.442466279         0.870750453         0.306507530
     0.921042043         0.377690586         0.306507530
     0.421042095         0.877690523         0.306507530
     0.899617860         0.384630874         0.306507530
     0.399617912         0.884630843         0.306507530
     0.878193568         0.391571101         0.306507530
     0.378193594         0.891571101         0.306507530
     0.856769277         0.398511358         0.306507530
     0.356769329         0.898511358         0.306507530
     0.835345039         0.405451647         0.306507530
     0.335345038         0.905451678         0.306507530
     0.813920748         0.412391873         0.306507530
     0.313920746         0.912391873         0.306507530
     0.792496456         0.419332131         0.306507530
     0.292496428         0.919332131         0.306507530
     0.771072273         0.426272357         0.306507530
     0.271072271         0.926272388         0.306507530
     0.749647927         0.433212615         0.306507530
     0.249647980         0.933212646         0.306507530
     0.728223636         0.440152872         0.306507530
     0.228223553         0.940152903         0.306507530
     0.706799506         0.447093130         0.306507530
     0.206799519         0.947093098         0.306507530
     0.685375215         0.454033387         0.306507530
     0.185375213         0.954033356         0.306507530
     0.663950869         0.460973614         0.306507530
     0.163950922         0.960973614         0.306507530
     0.642526686         0.467913902         0.306507530
     0.142526630         0.967913871         0.306507530
     0.621102449         0.474854129         0.306507530
     0.121102461         0.974854129         0.306507530
     0.599678103         0.481794386         0.306507530
     0.099678041         0.981794386         0.306507530
     0.578253866         0.488734737         0.306507530
     0.078253864         0.988734706         0.306507530
     0.556829574         0.495674901         0.306507530
     0.056829573         0.995674901         0.306507530
     0.035405325         0.002615168         0.306507530
     0.535405337         0.502615159         0.306507530
     0.013981141         0.009555422         0.306507530
     0.513981153         0.509555385         0.306507530
     0.992556836         0.016495676         0.306507530
     0.492556808         0.516495705         0.306507530
     0.971132653         0.023435931         0.306507530
     0.471132625         0.523435962         0.306507530
     0.949708362         0.030376183         0.306507530
     0.449708333         0.530376220         0.306507530
     0.928283962         0.037316435         0.306507530
     0.428284042         0.537316415         0.306507530
     0.906859887         0.044256688         0.306507530
     0.406859885         0.544256673         0.306507530
     0.885435595         0.051196942         0.306507530
     0.385435594         0.551196930         0.306507530
     0.864011304         0.058137195         0.306507530
     0.364011275         0.558137188         0.306507530
     0.842587120         0.065077453         0.306507530
     0.342587119         0.565077445         0.306507530
     0.821162829         0.072017710         0.306507530
     0.321162827         0.572017703         0.306507530
     0.799738429         0.078957960         0.306507530
     0.299738401         0.578957960         0.306507530
     0.778314246         0.085898210         0.306507530
     0.278314353         0.585898218         0.306507530
     0.756889900         0.092838467         0.306507530
     0.256889818         0.592838475         0.306507530
     0.735465717         0.099778717         0.306507530
     0.235465743         0.599778733         0.306507530
     0.714041534         0.106718975         0.306507530
     0.214041465         0.606718928         0.306507530
     0.692617242         0.113659224         0.306507530
     0.192617173         0.613659185         0.306507530
     0.671192897         0.120599490         0.306507530
     0.171192882         0.620599505         0.306507530
     0.649768713         0.127539739         0.306507530
     0.149768712         0.627539763         0.306507530
     0.628344422         0.134479989         0.306507530
     0.128344407         0.634480020         0.306507530
     0.606920076         0.141420247         0.306507530
     0.106920129         0.641420215         0.306507530
     0.585496001         0.148360520         0.306507530
     0.085495945         0.648360473         0.306507530
     0.564071655         0.155300746         0.306507530
     0.064071654         0.655300730         0.306507530
     0.542647364         0.162241004         0.306507530
     0.042647362         0.662240988         0.306507530
     0.521223181         0.169181261         0.306507530
     0.021223188         0.669181245         0.306507530
     0.499798889         0.176121503         0.306507530
     0.999798915         0.676121503         0.306507530
     0.478374544         0.183061761         0.306507530
     0.978374515         0.683061761         0.306507530
     0.456950468         0.190002002         0.306507530
     0.956950548         0.690002018         0.306507530
     0.435526069         0.196942276         0.306507530
     0.935526040         0.696942276         0.306507530
     0.414101777         0.203882517         0.306507530
     0.914101749         0.703882533         0.306507530
     0.392677594         0.210822775         0.306507530
     0.892677619         0.710822791         0.306507530
     0.371253302         0.217763017         0.306507530
     0.871253274         0.717762986         0.306507530
     0.349828957         0.224703306         0.306507530
     0.849828928         0.724703306         0.306507530
     0.328404828         0.231643532         0.306507530
     0.828404745         0.731643563         0.306507530
     0.306980482         0.238583789         0.306507530
     0.806980508         0.738583821         0.306507530
     0.285556191         0.245524047         0.306507530
     0.785556216         0.745524078         0.306507530
     0.264132034         0.252464289         0.306507530
     0.764132033         0.752464273         0.306507530
     0.242707743         0.259404546         0.306507530
     0.742707741         0.759404531         0.306507530
     0.221283438         0.266344788         0.306507530
     0.721283450         0.766344788         0.306507530
     0.199859241         0.273285046         0.306507530
     0.699859266         0.773285046         0.306507530
     0.178434882         0.280225366         0.306507530
     0.678434813         0.780225366         0.306507530
     0.157010644         0.287165561         0.306507530
     0.657010629         0.787165498         0.306507530
     0.135586475         0.294105787         0.306507530
     0.635586500         0.794105756         0.306507530
     0.114162129         0.301046045         0.306507530
     0.614162100         0.801046013         0.306507530
     0.092737797         0.307986333         0.306507530
     0.592737809         0.807986333         0.306507530
     0.071313620         0.314926591         0.306507530
     0.571313626         0.814926653         0.306507530
     0.049889356         0.321866817         0.306507530
     0.549889334         0.821866786         0.306507530
     0.028465091         0.328807044         0.306507530
     0.528465097         0.828807044         0.306507530
     0.049285981         0.350231326         0.306507530
     0.549286030         0.850231295         0.306507530
     0.027861656         0.357171584         0.306507530
     0.527861685         0.857171615         0.306507530
     0.006437332         0.364111841         0.306507530
     0.506437339         0.864111810         0.306507530
     0.985013184         0.371052099         0.306507530
     0.485013264         0.871052068         0.306507530
     0.963588785         0.377992325         0.306507530
     0.463588810         0.877992325         0.306507530
     0.942164493         0.384932614         0.306507530
     0.442164546         0.884932645         0.306507530
     0.920740418         0.391872840         0.306507530
     0.420740471         0.891872903         0.306507530
     0.899316072         0.398813098         0.306507530
     0.399316071         0.898813098         0.306507530
     0.877891889         0.405753355         0.306507530
     0.377891888         0.905753355         0.306507530
     0.856467543         0.412693613         0.306507530
     0.356467488         0.912693613         0.306507530
     0.835043306         0.419633870         0.306507530
     0.335043305         0.919633870         0.306507530
     0.813618960         0.426574159         0.306507530
     0.313618905         0.926574190         0.306507530
     0.792194831         0.433514354         0.306507530
     0.292194857         0.933514385         0.306507530
     0.770770540         0.440454643         0.306507530
     0.270770538         0.940454580         0.306507530
     0.749346194         0.447394869         0.306507530
     0.249346247         0.947394838         0.306507530
     0.727922011         0.454335127         0.306507530
     0.227921982         0.954335095         0.306507530
     0.706497665         0.461275415         0.306507530
     0.206497677         0.961275478         0.306507530
     0.685073428         0.468215642         0.306507530
     0.185073372         0.968215673         0.306507530
     0.663649244         0.475155899         0.306507530
     0.163649324         0.975155868         0.306507530
     0.642224953         0.482096126         0.306507530
     0.142225033         0.982096126         0.306507530
     0.620800607         0.489036414         0.306507530
     0.120800606         0.989036446         0.306507530
     0.599376424         0.495976672         0.306507530
     0.099376443         0.995976703         0.306507530
     0.077952161         0.002916918         0.306507530
     0.577952187         0.502916929         0.306507530
     0.056527863         0.009857172         0.306507530
     0.556527895         0.509857187         0.306507530
     0.035103673         0.016797425         0.306507530
     0.535103712         0.516797413         0.306507530
     0.013679376         0.023737678         0.306507530
     0.513679366         0.523737671         0.306507530
     0.992255103         0.030677934         0.306507530
     0.492255075         0.530677897         0.306507530
     0.970830920         0.037618190         0.306507530
     0.470830891         0.537618154         0.306507530
     0.949406628         0.044558439         0.306507530
     0.449406627         0.544558474         0.306507530
     0.927982445         0.051498693         0.306507530
     0.427982444         0.551498732         0.306507530
     0.906558045         0.058438947         0.306507530
     0.406558044         0.558438927         0.306507530
     0.885133862         0.065379204         0.306507530
     0.385133861         0.565379185         0.306507530
     0.863709517         0.072319458         0.306507530
     0.363709461         0.572319442         0.306507530
     0.842285279         0.079259715         0.306507530
     0.342285278         0.579259700         0.306507530
     0.820861042         0.086199965         0.306507530
     0.320861094         0.586199957         0.306507530
     0.799436696         0.093140215         0.306507530
     0.299436695         0.593140215         0.306507530
     0.778012513         0.100080480         0.306507530
     0.278012511         0.600080472         0.306507530
     0.756588221         0.107020722         0.306507530
     0.256588220         0.607020730         0.306507530
     0.735163930         0.113960972         0.306507530
     0.235163928         0.613960987         0.306507530
     0.713739747         0.120901229         0.306507530
     0.213739745         0.620901245         0.306507530
     0.692315347         0.127841487         0.306507530
     0.192315345         0.627841502         0.306507530
     0.670891164         0.134781729         0.306507530
     0.170891162         0.634781697         0.306507530
     0.649466980         0.141721986         0.306507530
     0.149466992         0.641721955         0.306507530
     0.628042581         0.148662244         0.306507530
     0.128042579         0.648662212         0.306507530
     0.606618397         0.155602501         0.306507530
     0.106618402         0.655602532         0.306507530
     0.585194160         0.162542759         0.306507530
     0.085194111         0.662542790         0.306507530
     0.563769868         0.169483001         0.306507530
     0.063769813         0.669482985         0.306507530
     0.542345523         0.176423258         0.306507530
     0.042345525         0.676423242         0.306507530
     0.520921393         0.183363516         0.306507530
     0.020921468         0.683363500         0.306507530
     0.499497102         0.190303758         0.306507530
     0.999497182         0.690303758         0.306507530
     0.478072648         0.197244015         0.306507530
     0.978072674         0.697244077         0.306507530
     0.456648573         0.204184257         0.306507530
     0.956648599         0.704184273         0.306507530
     0.435224282         0.211124530         0.306507530
     0.935224307         0.711124530         0.306507530
     0.413799990         0.218064788         0.306507530
     0.913800016         0.718064788         0.306507530
     0.392375834         0.225005030         0.306507530
     0.892375832         0.725005045         0.306507530
     0.370951542         0.231945287         0.306507530
     0.870951487         0.731945303         0.306507530
     0.349527224         0.238885560         0.306507530
     0.849527249         0.738885560         0.306507530
     0.328103013         0.245825802         0.306507530
     0.828103066         0.745825755         0.306507530
     0.306678749         0.252766044         0.306507530
     0.806678774         0.752766013         0.306507530
     0.285254322         0.259706286         0.306507530
     0.785254375         0.759706270         0.306507530
     0.263830274         0.266646528         0.306507530
     0.763830300         0.766646528         0.306507530
     0.242405983         0.273586785         0.306507530
     0.742406008         0.773586723         0.306507530
     0.220981651         0.280527043         0.306507530
     0.720981663         0.780527043         0.306507530
     0.199557494         0.287467300         0.306507530
     0.699557479         0.787467300         0.306507530
     0.178133162         0.294407558         0.306507530
     0.678133134         0.794407558         0.306507530
     0.156708938         0.301347784         0.306507530
     0.656708950         0.801347815         0.306507530
     0.135284633         0.308288073         0.306507530
     0.635284659         0.808288073         0.306507530
     0.113860409         0.315228299         0.306507530
     0.613860367         0.815228330         0.306507530
     0.092436044         0.322168557         0.306507530
     0.592436076         0.822168588         0.306507530
     0.071011935         0.329108814         0.306507530
     0.571011893         0.829108846         0.306507530
     0.049587609         0.336049134         0.306507530
     0.549587601         0.836049165         0.306507530
     0.070408374         0.357473355         0.306507530
     0.570408372         0.857473355         0.306507530
     0.048984140         0.364413612         0.306507530
     0.548984189         0.864413612         0.306507530
     0.027559847         0.371353838         0.306507530
     0.527559897         0.871353870         0.306507530
     0.006135613         0.378294096         0.306507530
     0.506135606         0.878294127         0.306507530
     0.984711343         0.385234353         0.306507530
     0.484711423         0.885234385         0.306507530
     0.963287051         0.392174611         0.306507530
     0.463287077         0.892174580         0.306507530
     0.941862760         0.399114868         0.306507530
     0.441862840         0.899114837         0.306507530
     0.920438577         0.406055095         0.306507530
     0.420438521         0.906055095         0.306507530
     0.899014339         0.412995383         0.306507530
     0.399014338         0.912995352         0.306507530
     0.877589940         0.419935610         0.306507530
     0.377589938         0.919935610         0.306507530
     0.856165864         0.426875867         0.306507530
     0.356165890         0.926875805         0.306507530
     0.834741519         0.433816125         0.306507530
     0.334741598         0.933816125         0.306507530
     0.813317281         0.440756382         0.306507530
     0.313317307         0.940756382         0.306507530
     0.791893098         0.447696640         0.306507530
     0.291892988         0.947696640         0.306507530
     0.770468807         0.454636866         0.306507530
     0.270468724         0.954636897         0.306507530
     0.749044461         0.461577155         0.306507530
     0.249044432         0.961577155         0.306507530
     0.727620170         0.468517381         0.306507530
     0.227620114         0.968517412         0.306507530
     0.706195986         0.475457639         0.306507530
     0.206196079         0.975457670         0.306507530
     0.684771641         0.482397896         0.306507530
     0.184771653         0.982397927         0.306507530
     0.663347457         0.489338154         0.306507530
     0.163347469         0.989338185         0.306507530
     0.641923112         0.496278411         0.306507530
     0.141923191         0.996278380         0.306507530
     0.120498876         0.003218669         0.306507530
     0.620498928         0.503218638         0.306507530
     0.099074706         0.010158921         0.306507530
     0.599074745         0.510158895         0.306507530
     0.077650394         0.017099176         0.306507530
     0.577650454         0.517099215         0.306507530
     0.056226103         0.024039430         0.306507530
     0.556226054         0.524039441         0.306507530
     0.034801896         0.030979681         0.306507530
     0.534801871         0.530979699         0.306507530
     0.013377610         0.037919933         0.306507530
     0.513377579         0.537919956         0.306507530
     0.991953262         0.044860187         0.306507530
     0.491953342         0.544860214         0.306507530
     0.970529079         0.051800440         0.306507530
     0.470529050         0.551800409         0.306507530
     0.949104895         0.058740694         0.306507530
     0.449104786         0.558740667         0.306507530
     0.927680712         0.065680947         0.306507530
     0.427680602         0.565680986         0.306507530
     0.906256312         0.072621205         0.306507530
     0.406256338         0.572621244         0.306507530
     0.884832021         0.079561455         0.306507530
     0.384832019         0.579561502         0.306507530
     0.863407783         0.086501712         0.306507530
     0.363407863         0.586501697         0.306507530
     0.841983600         0.093441962         0.306507530
     0.341983545         0.593441954         0.306507530
     0.820559255         0.100382219         0.306507530
     0.320559253         0.600382212         0.306507530
     0.799134963         0.107322469         0.306507530
     0.299134989         0.607322469         0.306507530
     0.777710672         0.114262727         0.306507530
     0.277710670         0.614262727         0.306507530
     0.756286434         0.121202984         0.306507530
     0.256286379         0.621202984         0.306507530
     0.734862197         0.128143234         0.306507530
     0.234862195         0.628143242         0.306507530
     0.713437905         0.135083484         0.306507530
     0.213437904         0.635083499         0.306507530
     0.692013668         0.142023741         0.306507530
     0.192013747         0.642023757         0.306507530